WARNING: for repeatability, setting FPU to use double precision
============================[ Problem Statistics ]=============================
|                                                                             |
|  Number of variables:           100                                         |
|  Number of clauses:             449                                         |
|  Parse time:                   0.00 s                                       |
|  Eliminated clauses:           0.00 Mb                                      |
|  Simplification time:          0.00 s                                       |
|                                                                             |
============================[ Search Statistics ]==============================
| Conflicts |          ORIGINAL         |          LEARNT          | Progress |
|           |    Vars  Clauses Literals |    Limit  Clauses Lit/Cl |          |
===============================================================================
|       100 |      99      445     1338 |      163      100      6 |  0.020 % |
===============================================================================
restarts              : 2
conflicts             : 181            (63442 /sec)
decisions             : 239            (0.00 % random) (83771 /sec)
propagations          : 4235           (1484402 /sec)
conflict literals     : 1158           (19.86 % deleted)
Memory used           : 13.00 MB
CPU time              : 0.002853 s

SATISFIABLE
